p cnf 270 2142
1 2 3 4 5 6 7 8 9 0
10 11 12 13 14 15 16 17 18 0
19 20 21 22 23 24 25 26 27 0
28 29 30 31 32 33 34 35 36 0
37 38 39 40 41 42 43 44 45 0
46 47 48 49 50 51 52 53 54 0
55 56 57 58 59 60 61 62 63 0
64 65 66 67 68 69 70 71 72 0
73 74 75 76 77 78 79 80 81 0
82 83 84 85 86 87 88 89 90 0
91 92 93 94 95 96 97 98 99 0
100 101 102 103 104 105 106 107 108 0
109 110 111 112 113 114 115 116 117 0
118 119 120 121 122 123 124 125 126 0
127 128 129 130 131 132 133 134 135 0
136 137 138 139 140 141 142 143 144 0
145 146 147 148 149 150 151 152 153 0
154 155 156 157 158 159 160 161 162 0
163 164 165 166 167 168 169 170 171 0
172 173 174 175 176 177 178 179 180 0
181 182 183 184 185 186 187 188 189 0
190 191 192 193 194 195 196 197 198 0
199 200 201 202 203 204 205 206 207 0
208 209 210 211 212 213 214 215 216 0
217 218 219 220 221 222 223 224 225 0
226 227 228 229 230 231 232 233 234 0
235 236 237 238 239 240 241 242 243 0
244 245 246 247 248 249 250 251 252 0
253 254 255 256 257 258 259 260 261 0
262 263 264 265 266 267 268 269 270 0
-1 -2 0
-1 -3 0
-1 -4 0
-1 -5 0
-1 -6 0
-1 -7 0
-1 -8 0
-1 -9 0
-2 -3 0
-2 -4 0
-2 -5 0
-2 -6 0
-2 -7 0
-2 -8 0
-2 -9 0
-3 -4 0
-3 -5 0
-3 -6 0
-3 -7 0
-3 -8 0
-3 -9 0
-4 -5 0
-4 -6 0
-4 -7 0
-4 -8 0
-4 -9 0
-5 -6 0
-5 -7 0
-5 -8 0
-5 -9 0
-6 -7 0
-6 -8 0
-6 -9 0
-7 -8 0
-7 -9 0
-8 -9 0
-10 -11 0
-10 -12 0
-10 -13 0
-10 -14 0
-10 -15 0
-10 -16 0
-10 -17 0
-10 -18 0
-11 -12 0
-11 -13 0
-11 -14 0
-11 -15 0
-11 -16 0
-11 -17 0
-11 -18 0
-12 -13 0
-12 -14 0
-12 -15 0
-12 -16 0
-12 -17 0
-12 -18 0
-13 -14 0
-13 -15 0
-13 -16 0
-13 -17 0
-13 -18 0
-14 -15 0
-14 -16 0
-14 -17 0
-14 -18 0
-15 -16 0
-15 -17 0
-15 -18 0
-16 -17 0
-16 -18 0
-17 -18 0
-19 -20 0
-19 -21 0
-19 -22 0
-19 -23 0
-19 -24 0
-19 -25 0
-19 -26 0
-19 -27 0
-20 -21 0
-20 -22 0
-20 -23 0
-20 -24 0
-20 -25 0
-20 -26 0
-20 -27 0
-21 -22 0
-21 -23 0
-21 -24 0
-21 -25 0
-21 -26 0
-21 -27 0
-22 -23 0
-22 -24 0
-22 -25 0
-22 -26 0
-22 -27 0
-23 -24 0
-23 -25 0
-23 -26 0
-23 -27 0
-24 -25 0
-24 -26 0
-24 -27 0
-25 -26 0
-25 -27 0
-26 -27 0
-28 -29 0
-28 -30 0
-28 -31 0
-28 -32 0
-28 -33 0
-28 -34 0
-28 -35 0
-28 -36 0
-29 -30 0
-29 -31 0
-29 -32 0
-29 -33 0
-29 -34 0
-29 -35 0
-29 -36 0
-30 -31 0
-30 -32 0
-30 -33 0
-30 -34 0
-30 -35 0
-30 -36 0
-31 -32 0
-31 -33 0
-31 -34 0
-31 -35 0
-31 -36 0
-32 -33 0
-32 -34 0
-32 -35 0
-32 -36 0
-33 -34 0
-33 -35 0
-33 -36 0
-34 -35 0
-34 -36 0
-35 -36 0
-37 -38 0
-37 -39 0
-37 -40 0
-37 -41 0
-37 -42 0
-37 -43 0
-37 -44 0
-37 -45 0
-38 -39 0
-38 -40 0
-38 -41 0
-38 -42 0
-38 -43 0
-38 -44 0
-38 -45 0
-39 -40 0
-39 -41 0
-39 -42 0
-39 -43 0
-39 -44 0
-39 -45 0
-40 -41 0
-40 -42 0
-40 -43 0
-40 -44 0
-40 -45 0
-41 -42 0
-41 -43 0
-41 -44 0
-41 -45 0
-42 -43 0
-42 -44 0
-42 -45 0
-43 -44 0
-43 -45 0
-44 -45 0
-46 -47 0
-46 -48 0
-46 -49 0
-46 -50 0
-46 -51 0
-46 -52 0
-46 -53 0
-46 -54 0
-47 -48 0
-47 -49 0
-47 -50 0
-47 -51 0
-47 -52 0
-47 -53 0
-47 -54 0
-48 -49 0
-48 -50 0
-48 -51 0
-48 -52 0
-48 -53 0
-48 -54 0
-49 -50 0
-49 -51 0
-49 -52 0
-49 -53 0
-49 -54 0
-50 -51 0
-50 -52 0
-50 -53 0
-50 -54 0
-51 -52 0
-51 -53 0
-51 -54 0
-52 -53 0
-52 -54 0
-53 -54 0
-55 -56 0
-55 -57 0
-55 -58 0
-55 -59 0
-55 -60 0
-55 -61 0
-55 -62 0
-55 -63 0
-56 -57 0
-56 -58 0
-56 -59 0
-56 -60 0
-56 -61 0
-56 -62 0
-56 -63 0
-57 -58 0
-57 -59 0
-57 -60 0
-57 -61 0
-57 -62 0
-57 -63 0
-58 -59 0
-58 -60 0
-58 -61 0
-58 -62 0
-58 -63 0
-59 -60 0
-59 -61 0
-59 -62 0
-59 -63 0
-60 -61 0
-60 -62 0
-60 -63 0
-61 -62 0
-61 -63 0
-62 -63 0
-64 -65 0
-64 -66 0
-64 -67 0
-64 -68 0
-64 -69 0
-64 -70 0
-64 -71 0
-64 -72 0
-65 -66 0
-65 -67 0
-65 -68 0
-65 -69 0
-65 -70 0
-65 -71 0
-65 -72 0
-66 -67 0
-66 -68 0
-66 -69 0
-66 -70 0
-66 -71 0
-66 -72 0
-67 -68 0
-67 -69 0
-67 -70 0
-67 -71 0
-67 -72 0
-68 -69 0
-68 -70 0
-68 -71 0
-68 -72 0
-69 -70 0
-69 -71 0
-69 -72 0
-70 -71 0
-70 -72 0
-71 -72 0
-73 -74 0
-73 -75 0
-73 -76 0
-73 -77 0
-73 -78 0
-73 -79 0
-73 -80 0
-73 -81 0
-74 -75 0
-74 -76 0
-74 -77 0
-74 -78 0
-74 -79 0
-74 -80 0
-74 -81 0
-75 -76 0
-75 -77 0
-75 -78 0
-75 -79 0
-75 -80 0
-75 -81 0
-76 -77 0
-76 -78 0
-76 -79 0
-76 -80 0
-76 -81 0
-77 -78 0
-77 -79 0
-77 -80 0
-77 -81 0
-78 -79 0
-78 -80 0
-78 -81 0
-79 -80 0
-79 -81 0
-80 -81 0
-82 -83 0
-82 -84 0
-82 -85 0
-82 -86 0
-82 -87 0
-82 -88 0
-82 -89 0
-82 -90 0
-83 -84 0
-83 -85 0
-83 -86 0
-83 -87 0
-83 -88 0
-83 -89 0
-83 -90 0
-84 -85 0
-84 -86 0
-84 -87 0
-84 -88 0
-84 -89 0
-84 -90 0
-85 -86 0
-85 -87 0
-85 -88 0
-85 -89 0
-85 -90 0
-86 -87 0
-86 -88 0
-86 -89 0
-86 -90 0
-87 -88 0
-87 -89 0
-87 -90 0
-88 -89 0
-88 -90 0
-89 -90 0
-91 -92 0
-91 -93 0
-91 -94 0
-91 -95 0
-91 -96 0
-91 -97 0
-91 -98 0
-91 -99 0
-92 -93 0
-92 -94 0
-92 -95 0
-92 -96 0
-92 -97 0
-92 -98 0
-92 -99 0
-93 -94 0
-93 -95 0
-93 -96 0
-93 -97 0
-93 -98 0
-93 -99 0
-94 -95 0
-94 -96 0
-94 -97 0
-94 -98 0
-94 -99 0
-95 -96 0
-95 -97 0
-95 -98 0
-95 -99 0
-96 -97 0
-96 -98 0
-96 -99 0
-97 -98 0
-97 -99 0
-98 -99 0
-100 -101 0
-100 -102 0
-100 -103 0
-100 -104 0
-100 -105 0
-100 -106 0
-100 -107 0
-100 -108 0
-101 -102 0
-101 -103 0
-101 -104 0
-101 -105 0
-101 -106 0
-101 -107 0
-101 -108 0
-102 -103 0
-102 -104 0
-102 -105 0
-102 -106 0
-102 -107 0
-102 -108 0
-103 -104 0
-103 -105 0
-103 -106 0
-103 -107 0
-103 -108 0
-104 -105 0
-104 -106 0
-104 -107 0
-104 -108 0
-105 -106 0
-105 -107 0
-105 -108 0
-106 -107 0
-106 -108 0
-107 -108 0
-109 -110 0
-109 -111 0
-109 -112 0
-109 -113 0
-109 -114 0
-109 -115 0
-109 -116 0
-109 -117 0
-110 -111 0
-110 -112 0
-110 -113 0
-110 -114 0
-110 -115 0
-110 -116 0
-110 -117 0
-111 -112 0
-111 -113 0
-111 -114 0
-111 -115 0
-111 -116 0
-111 -117 0
-112 -113 0
-112 -114 0
-112 -115 0
-112 -116 0
-112 -117 0
-113 -114 0
-113 -115 0
-113 -116 0
-113 -117 0
-114 -115 0
-114 -116 0
-114 -117 0
-115 -116 0
-115 -117 0
-116 -117 0
-118 -119 0
-118 -120 0
-118 -121 0
-118 -122 0
-118 -123 0
-118 -124 0
-118 -125 0
-118 -126 0
-119 -120 0
-119 -121 0
-119 -122 0
-119 -123 0
-119 -124 0
-119 -125 0
-119 -126 0
-120 -121 0
-120 -122 0
-120 -123 0
-120 -124 0
-120 -125 0
-120 -126 0
-121 -122 0
-121 -123 0
-121 -124 0
-121 -125 0
-121 -126 0
-122 -123 0
-122 -124 0
-122 -125 0
-122 -126 0
-123 -124 0
-123 -125 0
-123 -126 0
-124 -125 0
-124 -126 0
-125 -126 0
-127 -128 0
-127 -129 0
-127 -130 0
-127 -131 0
-127 -132 0
-127 -133 0
-127 -134 0
-127 -135 0
-128 -129 0
-128 -130 0
-128 -131 0
-128 -132 0
-128 -133 0
-128 -134 0
-128 -135 0
-129 -130 0
-129 -131 0
-129 -132 0
-129 -133 0
-129 -134 0
-129 -135 0
-130 -131 0
-130 -132 0
-130 -133 0
-130 -134 0
-130 -135 0
-131 -132 0
-131 -133 0
-131 -134 0
-131 -135 0
-132 -133 0
-132 -134 0
-132 -135 0
-133 -134 0
-133 -135 0
-134 -135 0
-136 -137 0
-136 -138 0
-136 -139 0
-136 -140 0
-136 -141 0
-136 -142 0
-136 -143 0
-136 -144 0
-137 -138 0
-137 -139 0
-137 -140 0
-137 -141 0
-137 -142 0
-137 -143 0
-137 -144 0
-138 -139 0
-138 -140 0
-138 -141 0
-138 -142 0
-138 -143 0
-138 -144 0
-139 -140 0
-139 -141 0
-139 -142 0
-139 -143 0
-139 -144 0
-140 -141 0
-140 -142 0
-140 -143 0
-140 -144 0
-141 -142 0
-141 -143 0
-141 -144 0
-142 -143 0
-142 -144 0
-143 -144 0
-145 -146 0
-145 -147 0
-145 -148 0
-145 -149 0
-145 -150 0
-145 -151 0
-145 -152 0
-145 -153 0
-146 -147 0
-146 -148 0
-146 -149 0
-146 -150 0
-146 -151 0
-146 -152 0
-146 -153 0
-147 -148 0
-147 -149 0
-147 -150 0
-147 -151 0
-147 -152 0
-147 -153 0
-148 -149 0
-148 -150 0
-148 -151 0
-148 -152 0
-148 -153 0
-149 -150 0
-149 -151 0
-149 -152 0
-149 -153 0
-150 -151 0
-150 -152 0
-150 -153 0
-151 -152 0
-151 -153 0
-152 -153 0
-154 -155 0
-154 -156 0
-154 -157 0
-154 -158 0
-154 -159 0
-154 -160 0
-154 -161 0
-154 -162 0
-155 -156 0
-155 -157 0
-155 -158 0
-155 -159 0
-155 -160 0
-155 -161 0
-155 -162 0
-156 -157 0
-156 -158 0
-156 -159 0
-156 -160 0
-156 -161 0
-156 -162 0
-157 -158 0
-157 -159 0
-157 -160 0
-157 -161 0
-157 -162 0
-158 -159 0
-158 -160 0
-158 -161 0
-158 -162 0
-159 -160 0
-159 -161 0
-159 -162 0
-160 -161 0
-160 -162 0
-161 -162 0
-163 -164 0
-163 -165 0
-163 -166 0
-163 -167 0
-163 -168 0
-163 -169 0
-163 -170 0
-163 -171 0
-164 -165 0
-164 -166 0
-164 -167 0
-164 -168 0
-164 -169 0
-164 -170 0
-164 -171 0
-165 -166 0
-165 -167 0
-165 -168 0
-165 -169 0
-165 -170 0
-165 -171 0
-166 -167 0
-166 -168 0
-166 -169 0
-166 -170 0
-166 -171 0
-167 -168 0
-167 -169 0
-167 -170 0
-167 -171 0
-168 -169 0
-168 -170 0
-168 -171 0
-169 -170 0
-169 -171 0
-170 -171 0
-172 -173 0
-172 -174 0
-172 -175 0
-172 -176 0
-172 -177 0
-172 -178 0
-172 -179 0
-172 -180 0
-173 -174 0
-173 -175 0
-173 -176 0
-173 -177 0
-173 -178 0
-173 -179 0
-173 -180 0
-174 -175 0
-174 -176 0
-174 -177 0
-174 -178 0
-174 -179 0
-174 -180 0
-175 -176 0
-175 -177 0
-175 -178 0
-175 -179 0
-175 -180 0
-176 -177 0
-176 -178 0
-176 -179 0
-176 -180 0
-177 -178 0
-177 -179 0
-177 -180 0
-178 -179 0
-178 -180 0
-179 -180 0
-181 -182 0
-181 -183 0
-181 -184 0
-181 -185 0
-181 -186 0
-181 -187 0
-181 -188 0
-181 -189 0
-182 -183 0
-182 -184 0
-182 -185 0
-182 -186 0
-182 -187 0
-182 -188 0
-182 -189 0
-183 -184 0
-183 -185 0
-183 -186 0
-183 -187 0
-183 -188 0
-183 -189 0
-184 -185 0
-184 -186 0
-184 -187 0
-184 -188 0
-184 -189 0
-185 -186 0
-185 -187 0
-185 -188 0
-185 -189 0
-186 -187 0
-186 -188 0
-186 -189 0
-187 -188 0
-187 -189 0
-188 -189 0
-190 -191 0
-190 -192 0
-190 -193 0
-190 -194 0
-190 -195 0
-190 -196 0
-190 -197 0
-190 -198 0
-191 -192 0
-191 -193 0
-191 -194 0
-191 -195 0
-191 -196 0
-191 -197 0
-191 -198 0
-192 -193 0
-192 -194 0
-192 -195 0
-192 -196 0
-192 -197 0
-192 -198 0
-193 -194 0
-193 -195 0
-193 -196 0
-193 -197 0
-193 -198 0
-194 -195 0
-194 -196 0
-194 -197 0
-194 -198 0
-195 -196 0
-195 -197 0
-195 -198 0
-196 -197 0
-196 -198 0
-197 -198 0
-199 -200 0
-199 -201 0
-199 -202 0
-199 -203 0
-199 -204 0
-199 -205 0
-199 -206 0
-199 -207 0
-200 -201 0
-200 -202 0
-200 -203 0
-200 -204 0
-200 -205 0
-200 -206 0
-200 -207 0
-201 -202 0
-201 -203 0
-201 -204 0
-201 -205 0
-201 -206 0
-201 -207 0
-202 -203 0
-202 -204 0
-202 -205 0
-202 -206 0
-202 -207 0
-203 -204 0
-203 -205 0
-203 -206 0
-203 -207 0
-204 -205 0
-204 -206 0
-204 -207 0
-205 -206 0
-205 -207 0
-206 -207 0
-208 -209 0
-208 -210 0
-208 -211 0
-208 -212 0
-208 -213 0
-208 -214 0
-208 -215 0
-208 -216 0
-209 -210 0
-209 -211 0
-209 -212 0
-209 -213 0
-209 -214 0
-209 -215 0
-209 -216 0
-210 -211 0
-210 -212 0
-210 -213 0
-210 -214 0
-210 -215 0
-210 -216 0
-211 -212 0
-211 -213 0
-211 -214 0
-211 -215 0
-211 -216 0
-212 -213 0
-212 -214 0
-212 -215 0
-212 -216 0
-213 -214 0
-213 -215 0
-213 -216 0
-214 -215 0
-214 -216 0
-215 -216 0
-217 -218 0
-217 -219 0
-217 -220 0
-217 -221 0
-217 -222 0
-217 -223 0
-217 -224 0
-217 -225 0
-218 -219 0
-218 -220 0
-218 -221 0
-218 -222 0
-218 -223 0
-218 -224 0
-218 -225 0
-219 -220 0
-219 -221 0
-219 -222 0
-219 -223 0
-219 -224 0
-219 -225 0
-220 -221 0
-220 -222 0
-220 -223 0
-220 -224 0
-220 -225 0
-221 -222 0
-221 -223 0
-221 -224 0
-221 -225 0
-222 -223 0
-222 -224 0
-222 -225 0
-223 -224 0
-223 -225 0
-224 -225 0
-226 -227 0
-226 -228 0
-226 -229 0
-226 -230 0
-226 -231 0
-226 -232 0
-226 -233 0
-226 -234 0
-227 -228 0
-227 -229 0
-227 -230 0
-227 -231 0
-227 -232 0
-227 -233 0
-227 -234 0
-228 -229 0
-228 -230 0
-228 -231 0
-228 -232 0
-228 -233 0
-228 -234 0
-229 -230 0
-229 -231 0
-229 -232 0
-229 -233 0
-229 -234 0
-230 -231 0
-230 -232 0
-230 -233 0
-230 -234 0
-231 -232 0
-231 -233 0
-231 -234 0
-232 -233 0
-232 -234 0
-233 -234 0
-235 -236 0
-235 -237 0
-235 -238 0
-235 -239 0
-235 -240 0
-235 -241 0
-235 -242 0
-235 -243 0
-236 -237 0
-236 -238 0
-236 -239 0
-236 -240 0
-236 -241 0
-236 -242 0
-236 -243 0
-237 -238 0
-237 -239 0
-237 -240 0
-237 -241 0
-237 -242 0
-237 -243 0
-238 -239 0
-238 -240 0
-238 -241 0
-238 -242 0
-238 -243 0
-239 -240 0
-239 -241 0
-239 -242 0
-239 -243 0
-240 -241 0
-240 -242 0
-240 -243 0
-241 -242 0
-241 -243 0
-242 -243 0
-244 -245 0
-244 -246 0
-244 -247 0
-244 -248 0
-244 -249 0
-244 -250 0
-244 -251 0
-244 -252 0
-245 -246 0
-245 -247 0
-245 -248 0
-245 -249 0
-245 -250 0
-245 -251 0
-245 -252 0
-246 -247 0
-246 -248 0
-246 -249 0
-246 -250 0
-246 -251 0
-246 -252 0
-247 -248 0
-247 -249 0
-247 -250 0
-247 -251 0
-247 -252 0
-248 -249 0
-248 -250 0
-248 -251 0
-248 -252 0
-249 -250 0
-249 -251 0
-249 -252 0
-250 -251 0
-250 -252 0
-251 -252 0
-253 -254 0
-253 -255 0
-253 -256 0
-253 -257 0
-253 -258 0
-253 -259 0
-253 -260 0
-253 -261 0
-254 -255 0
-254 -256 0
-254 -257 0
-254 -258 0
-254 -259 0
-254 -260 0
-254 -261 0
-255 -256 0
-255 -257 0
-255 -258 0
-255 -259 0
-255 -260 0
-255 -261 0
-256 -257 0
-256 -258 0
-256 -259 0
-256 -260 0
-256 -261 0
-257 -258 0
-257 -259 0
-257 -260 0
-257 -261 0
-258 -259 0
-258 -260 0
-258 -261 0
-259 -260 0
-259 -261 0
-260 -261 0
-262 -263 0
-262 -264 0
-262 -265 0
-262 -266 0
-262 -267 0
-262 -268 0
-262 -269 0
-262 -270 0
-263 -264 0
-263 -265 0
-263 -266 0
-263 -267 0
-263 -268 0
-263 -269 0
-263 -270 0
-264 -265 0
-264 -266 0
-264 -267 0
-264 -268 0
-264 -269 0
-264 -270 0
-265 -266 0
-265 -267 0
-265 -268 0
-265 -269 0
-265 -270 0
-266 -267 0
-266 -268 0
-266 -269 0
-266 -270 0
-267 -268 0
-267 -269 0
-267 -270 0
-268 -269 0
-268 -270 0
-269 -270 0
-2 -47 0
-9 -52 0
-8 -49 0
-4 -48 0
-8 -47 0
-6 -53 0
-8 -50 0
-1 -54 0
-2 -51 0
-6 -50 0
-4 -52 0
-4 -46 0
-3 -50 0
-5 -46 0
-1 -53 0
-8 -51 0
-9 -53 0
-2 -53 0
-8 -48 0
-7 -46 0
-2 -46 0
-3 -53 0
-2 -52 0
-7 -52 0
-5 -82 0
-4 -83 0
-9 -87 0
-5 -85 0
-8 -90 0
-1 -89 0
-6 -86 0
-7 -90 0
-7 -85 0
-1 -86 0
-3 -84 0
-6 -82 0
-6 -85 0
-9 -88 0
-5 -90 0
-8 -83 0
-6 -87 0
-3 -85 0
-8 -84 0
-8 -88 0
-9 -89 0
-9 -82 0
-1 -90 0
-5 -89 0
-5 -169 0
-3 -164 0
-1 -170 0
-8 -166 0
-7 -169 0
-5 -165 0
-8 -171 0
-4 -164 0
-2 -166 0
-9 -169 0
-7 -170 0
-6 -163 0
-2 -169 0
-4 -169 0
-6 -169 0
-4 -166 0
-2 -170 0
-6 -168 0
-1 -169 0
-1 -165 0
-9 -168 0
-1 -168 0
-9 -163 0
-1 -164 0
-13 -53 0
-18 -49 0
-16 -50 0
-17 -50 0
-14 -49 0
-18 -50 0
-15 -49 0
-13 -50 0
-11 -54 0
-16 -54 0
-11 -47 0
-10 -50 0
-16 -46 0
-18 -54 0
-14 -47 0
-10 -48 0
-18 -47 0
-12 -46 0
-17 -48 0
-18 -46 0
-17 -53 0
-16 -52 0
-13 -54 0
-10 -51 0
-18 -162 0
-14 -155 0
-11 -159 0
-15 -162 0
-16 -162 0
-11 -162 0
-12 -162 0
-14 -160 0
-13 -155 0
-11 -156 0
-15 -155 0
-16 -157 0
-18 -159 0
-18 -160 0
-13 -154 0
-13 -161 0
-13 -158 0
-11 -155 0
-18 -158 0
-11 -161 0
-10 -158 0
-15 -154 0
-10 -155 0
-17 -156 0
-10 -182 0
-15 -183 0
-16 -182 0
-18 -186 0
-11 -181 0
-14 -184 0
-11 -189 0
-15 -186 0
-10 -186 0
-12 -185 0
-15 -189 0
-13 -189 0
-16 -186 0
-13 -188 0
-17 -188 0
-18 -188 0
-13 -183 0
-17 -189 0
-12 -188 0
-10 -189 0
-16 -181 0
-12 -186 0
-16 -184 0
-11 -188 0
-16 -240 0
-13 -240 0
-16 -237 0
-12 -238 0
-13 -238 0
-18 -243 0
-11 -237 0
-13 -236 0
-15 -243 0
-12 -235 0
-13 -241 0
-12 -236 0
-16 -243 0
-17 -235 0
-10 -243 0
-14 -243 0
-11 -240 0
-10 -238 0
-16 -242 0
-18 -235 0
-13 -242 0
-15 -237 0
-13 -235 0
-11 -239 0
-24 -36 0
-25 -30 0
-24 -29 0
-27 -30 0
-26 -31 0
-19 -31 0
-23 -30 0
-19 -29 0
-19 -33 0
-23 -35 0
-20 -36 0
-25 -36 0
-21 -34 0
-27 -36 0
-26 -28 0
-21 -35 0
-26 -36 0
-22 -33 0
-26 -33 0
-20 -32 0
-22 -31 0
-26 -35 0
-23 -34 0
-22 -35 0
-19 -41 0
-24 -41 0
-25 -43 0
-25 -41 0
-26 -39 0
-27 -38 0
-27 -44 0
-25 -42 0
-27 -37 0
-26 -45 0
-22 -41 0
-22 -37 0
-25 -39 0
-25 -45 0
-24 -44 0
-22 -38 0
-26 -40 0
-27 -40 0
-19 -45 0
-19 -37 0
-23 -42 0
-23 -39 0
-20 -40 0
-20 -38 0
-24 -90 0
-21 -90 0
-23 -84 0
-20 -89 0
-23 -82 0
-20 -82 0
-22 -90 0
-26 -82 0
-24 -87 0
-20 -87 0
-26 -86 0
-21 -82 0
-22 -83 0
-22 -89 0
-20 -88 0
-27 -87 0
-26 -88 0
-23 -89 0
-24 -84 0
-21 -84 0
-22 -82 0
-20 -90 0
-22 -87 0
-24 -89 0
-20 -181 0
-23 -183 0
-21 -183 0
-25 -183 0
-24 -185 0
-27 -184 0
-24 -181 0
-20 -184 0
-26 -182 0
-23 -182 0
-22 -189 0
-22 -187 0
-25 -186 0
-27 -182 0
-26 -185 0
-25 -182 0
-23 -184 0
-27 -189 0
-20 -189 0
-24 -186 0
-25 -184 0
-23 -188 0
-20 -182 0
-22 -188 0
-26 -226 0
-23 -228 0
-26 -229 0
-27 -228 0
-21 -226 0
-27 -227 0
-23 -227 0
-27 -234 0
-23 -226 0
-21 -227 0
-27 -231 0
-25 -234 0
-20 -226 0
-27 -229 0
-24 -233 0
-24 -234 0
-22 -234 0
-26 -230 0
-23 -234 0
-23 -231 0
-26 -228 0
-24 -232 0
-19 -230 0
-19 -233 0
-33 -61 0
-28 -61 0
-29 -56 0
-29 -55 0
-30 -60 0
-33 -57 0
-36 -63 0
-28 -55 0
-31 -63 0
-29 -58 0
-33 -60 0
-35 -57 0
-29 -62 0
-31 -60 0
-30 -55 0
-35 -58 0
-36 -58 0
-31 -58 0
-29 -59 0
-31 -56 0
-34 -59 0
-29 -60 0
-30 -63 0
-32 -58 0
-31 -213 0
-28 -215 0
-29 -212 0
-36 -209 0
-34 -212 0
-28 -212 0
-29 -214 0
-29 -215 0
-31 -216 0
-34 -211 0
-30 -213 0
-33 -211 0
-34 -215 0
-31 -215 0
-35 -214 0
-35 -216 0
-31 -210 0
-29 -216 0
-28 -213 0
-32 -212 0
-32 -210 0
-30 -209 0
-36 -210 0
-34 -209 0
-43 -53 0
-45 -49 0
-41 -46 0
-45 -54 0
-43 -54 0
-37 -47 0
-42 -54 0
-41 -54 0
-45 -52 0
-43 -46 0
-41 -49 0
-41 -52 0
-43 -49 0
-43 -50 0
-37 -54 0
-42 -50 0
-43 -48 0
-45 -47 0
-39 -47 0
-41 -53 0
-40 -53 0
-45 -46 0
-39 -51 0
-39 -50 0
-43 -77 0
-38 -80 0
-40 -79 0
-44 -74 0
-44 -79 0
-45 -77 0
-45 -80 0
-37 -73 0
-42 -76 0
-38 -81 0
-40 -80 0
-42 -81 0
-44 -80 0
-44 -77 0
-38 -76 0
-42 -80 0
-42 -79 0
-40 -73 0
-43 -80 0
-41 -80 0
-38 -77 0
-37 -80 0
-45 -78 0
-45 -75 0
-43 -182 0
-37 -189 0
-40 -185 0
-44 -187 0
-44 -188 0
-39 -184 0
-38 -189 0
-43 -185 0
-38 -181 0
-42 -186 0
-45 -186 0
-42 -189 0
-44 -183 0
-44 -189 0
-38 -186 0
-37 -181 0
-37 -182 0
-41 -182 0
-42 -188 0
-44 -182 0
-37 -185 0
-37 -186 0
-42 -185 0
-39 -187 0
-42 -210 0
-44 -210 0
-43 -214 0
-44 -208 0
-45 -209 0
-44 -215 0
-38 -216 0
-37 -212 0
-37 -208 0
-45 -216 0
-39 -212 0
-45 -211 0
-40 -214 0
-41 -214 0
-40 -209 0
-39 -208 0
-38 -211 0
-37 -216 0
-43 -215 0
-42 -216 0
-44 -209 0
-40 -212 0
-38 -215 0
-42 -213 0
-52 -261 0
-48 -255 0
-51 -254 0
-51 -261 0
-49 -259 0
-48 -256 0
-50 -256 0
-52 -254 0
-47 -256 0
-52 -259 0
-53 -259 0
-47 -255 0
-53 -253 0
-50 -259 0
-50 -253 0
-52 -260 0
-53 -260 0
-54 -260 0
-54 -257 0
-51 -259 0
-49 -253 0
-48 -259 0
-50 -261 0
-47 -261 0
-60 -154 0
-62 -156 0
-56 -158 0
-60 -161 0
-61 -161 0
-61 -162 0
-57 -154 0
-61 -156 0
-59 -160 0
-59 -157 0
-56 -154 0
-58 -156 0
-62 -154 0
-63 -161 0
-60 -158 0
-56 -159 0
-57 -158 0
-56 -155 0
-56 -162 0
-60 -156 0
-59 -162 0
-62 -157 0
-56 -161 0
-63 -155 0
-61 -176 0
-59 -179 0
-56 -173 0
-62 -176 0
-63 -176 0
-62 -174 0
-58 -180 0
-56 -172 0
-59 -177 0
-60 -172 0
-57 -177 0
-62 -180 0
-57 -178 0
-61 -179 0
-62 -172 0
-56 -174 0
-57 -174 0
-60 -176 0
-61 -174 0
-60 -178 0
-58 -179 0
-59 -180 0
-57 -172 0
-55 -177 0
-55 -199 0
-60 -201 0
-57 -199 0
-57 -207 0
-55 -206 0
-62 -200 0
-58 -204 0
-56 -199 0
-58 -206 0
-60 -203 0
-63 -201 0
-61 -205 0
-61 -203 0
-58 -200 0
-56 -207 0
-62 -205 0
-60 -202 0
-60 -199 0
-62 -207 0
-58 -207 0
-62 -202 0
-59 -202 0
-59 -199 0
-56 -206 0
-59 -237 0
-56 -239 0
-62 -236 0
-56 -243 0
-56 -241 0
-63 -242 0
-63 -238 0
-56 -235 0
-56 -236 0
-63 -241 0
-55 -236 0
-61 -237 0
-58 -237 0
-58 -243 0
-62 -235 0
-57 -236 0
-61 -236 0
-60 -239 0
-61 -238 0
-58 -242 0
-56 -238 0
-57 -240 0
-57 -241 0
-57 -235 0
-65 -158 0
-66 -161 0
-68 -158 0
-66 -157 0
-68 -154 0
-65 -159 0
-72 -161 0
-72 -160 0
-70 -155 0
-66 -158 0
-68 -157 0
-69 -156 0
-64 -160 0
-66 -162 0
-67 -159 0
-71 -155 0
-72 -162 0
-72 -154 0
-70 -159 0
-71 -160 0
-68 -156 0
-66 -154 0
-69 -157 0
-70 -160 0
-75 -111 0
-76 -116 0
-76 -114 0
-73 -111 0
-73 -110 0
-76 -117 0
-78 -113 0
-79 -110 0
-76 -115 0
-81 -116 0
-81 -109 0
-76 -109 0
-80 -117 0
-74 -109 0
-74 -116 0
-75 -113 0
-75 -115 0
-81 -112 0
-80 -110 0
-76 -110 0
-80 -113 0
-77 -111 0
-75 -116 0
-80 -112 0
-86 -215 0
-83 -213 0
-88 -215 0
-85 -213 0
-86 -210 0
-90 -209 0
-89 -209 0
-82 -209 0
-88 -212 0
-82 -213 0
-88 -210 0
-82 -210 0
-82 -216 0
-88 -211 0
-84 -213 0
-83 -208 0
-85 -214 0
-82 -212 0
-86 -208 0
-90 -208 0
-88 -216 0
-87 -211 0
-89 -213 0
-86 -216 0
-106 -188 0
-101 -187 0
-107 -186 0
-106 -184 0
-101 -182 0
-107 -187 0
-100 -185 0
-107 -185 0
-108 -183 0
-102 -183 0
-101 -186 0
-103 -182 0
-104 -183 0
-104 -184 0
-103 -186 0
-101 -181 0
-106 -183 0
-104 -182 0
-106 -181 0
-108 -181 0
-107 -181 0
-103 -185 0
-105 -186 0
-102 -188 0
-105 -212 0
-104 -208 0
-106 -211 0
-102 -214 0
-101 -213 0
-100 -212 0
-103 -208 0
-102 -213 0
-100 -210 0
-105 -214 0
-102 -211 0
-102 -212 0
-103 -216 0
-100 -211 0
-107 -208 0
-108 -210 0
-107 -214 0
-101 -211 0
-104 -212 0
-106 -210 0
-107 -216 0
-105 -213 0
-102 -208 0
-101 -216 0
-100 -217 0
-106 -217 0
-104 -223 0
-101 -220 0
-102 -220 0
-107 -220 0
-102 -225 0
-101 -225 0
-103 -222 0
-102 -223 0
-105 -219 0
-102 -224 0
-101 -221 0
-103 -223 0
-106 -221 0
-105 -220 0
-100 -224 0
-105 -217 0
-103 -220 0
-102 -217 0
-100 -218 0
-106 -224 0
-107 -224 0
-101 -224 0
-106 -264 0
-105 -266 0
-106 -270 0
-102 -262 0
-105 -268 0
-101 -268 0
-102 -266 0
-103 -263 0
-102 -268 0
-105 -270 0
-106 -267 0
-107 -266 0
-105 -262 0
-106 -262 0
-106 -268 0
-106 -269 0
-108 -262 0
-108 -263 0
-108 -264 0
-106 -265 0
-100 -265 0
-103 -262 0
-102 -267 0
-102 -270 0
-126 -135 0
-120 -127 0
-118 -129 0
-123 -131 0
-123 -132 0
-125 -135 0
-118 -128 0
-125 -130 0
-119 -131 0
-119 -130 0
-122 -134 0
-121 -129 0
-120 -129 0
-126 -134 0
-122 -132 0
-119 -128 0
-122 -128 0
-121 -133 0
-122 -133 0
-120 -134 0
-118 -133 0
-121 -131 0
-125 -128 0
-121 -134 0
-124 -238 0
-123 -239 0
-124 -242 0
-124 -243 0
-122 -238 0
-121 -235 0
-119 -240 0
-119 -238 0
-125 -238 0
-119 -242 0
-123 -241 0
-118 -236 0
-126 -237 0
-122 -240 0
-126 -243 0
-126 -239 0
-122 -235 0
-125 -237 0
-123 -237 0
-121 -241 0
-122 -243 0
-122 -236 0
-123 -236 0
-121 -240 0
-130 -203 0
-132 -202 0
-133 -202 0
-129 -200 0
-128 -206 0
-131 -199 0
-127 -202 0
-127 -204 0
-128 -200 0
-133 -204 0
-127 -207 0
-129 -205 0
-129 -202 0
-132 -203 0
-135 -205 0
-129 -201 0
-128 -207 0
-131 -206 0
-130 -202 0
-130 -205 0
-132 -201 0
-128 -203 0
-130 -207 0
-131 -200 0
-139 -207 0
-143 -200 0
-140 -202 0
-138 -202 0
-140 -200 0
-139 -201 0
-136 -204 0
-138 -204 0
-137 -204 0
-140 -201 0
-144 -202 0
-140 -207 0
-138 -205 0
-144 -205 0
-138 -200 0
-136 -207 0
-141 -207 0
-142 -204 0
-137 -201 0
-138 -199 0
-136 -202 0
-143 -201 0
-137 -207 0
-144 -204 0
-138 -246 0
-142 -248 0
-142 -249 0
-144 -246 0
-139 -245 0
-136 -247 0
-136 -252 0
-140 -251 0
-143 -252 0
-141 -244 0
-136 -251 0
-137 -250 0
-140 -249 0
-137 -246 0
-140 -250 0
-138 -252 0
-141 -251 0
-144 -252 0
-139 -252 0
-141 -248 0
-141 -249 0
-143 -248 0
-142 -250 0
-136 -244 0
-150 -216 0
-152 -211 0
-147 -216 0
-153 -214 0
-153 -213 0
-148 -214 0
-150 -211 0
-146 -214 0
-145 -212 0
-149 -209 0
-149 -211 0
-147 -212 0
-150 -215 0
-147 -209 0
-145 -209 0
-148 -213 0
-153 -216 0
-146 -211 0
-150 -208 0
-152 -214 0
-146 -216 0
-151 -215 0
-151 -214 0
-152 -212 0
-150 -223 0
-148 -221 0
-147 -217 0
-145 -222 0
-152 -222 0
-153 -217 0
-146 -221 0
-153 -225 0
-145 -224 0
-146 -217 0
-152 -225 0
-147 -223 0
-149 -219 0
-152 -218 0
-148 -217 0
-151 -223 0
-150 -220 0
-148 -224 0
-151 -221 0
-149 -225 0
-153 -219 0
-149 -217 0
-153 -220 0
-146 -220 0
-152 -228 0
-151 -229 0
-147 -227 0
-146 -228 0
-153 -234 0
-146 -233 0
-145 -234 0
-152 -231 0
-149 -228 0
-148 -230 0
-150 -226 0
-150 -233 0
-152 -227 0
-153 -227 0
-150 -227 0
-149 -232 0
-148 -231 0
-152 -232 0
-151 -230 0
-146 -230 0
-150 -232 0
-148 -232 0
-147 -234 0
-146 -226 0
-156 -187 0
-159 -189 0
-162 -187 0
-157 -185 0
-161 -189 0
-160 -188 0
-161 -186 0
-159 -183 0
-156 -184 0
-158 -188 0
-160 -189 0
-156 -188 0
-156 -189 0
-159 -188 0
-156 -181 0
-154 -184 0
-159 -184 0
-155 -184 0
-158 -182 0
-160 -184 0
-154 -187 0
-162 -188 0
-156 -182 0
-155 -183 0
-161 -262 0
-160 -270 0
-154 -263 0
-159 -264 0
-162 -268 0
-158 -266 0
-162 -270 0
-157 -267 0
-154 -269 0
-161 -269 0
-154 -265 0
-156 -263 0
-159 -268 0
-156 -270 0
-161 -270 0
-156 -267 0
-161 -268 0
-159 -269 0
-155 -262 0
-158 -262 0
-158 -268 0
-158 -263 0
-154 -270 0
-156 -266 0
-164 -183 0
-164 -185 0
-168 -187 0
-171 -181 0
-168 -188 0
-168 -189 0
-171 -185 0
-166 -186 0
-164 -184 0
-163 -186 0
-167 -185 0
-170 -184 0
-169 -186 0
-165 -182 0
-165 -188 0
-168 -181 0
-165 -187 0
-166 -189 0
-165 -185 0
-165 -189 0
-171 -183 0
-167 -184 0
-166 -183 0
-169 -182 0
-178 -196 0
-172 -192 0
-174 -191 0
-176 -194 0
-180 -194 0
-180 -196 0
-180 -192 0
-176 -190 0
-175 -193 0
-180 -198 0
-176 -198 0
-176 -193 0
-179 -193 0
-172 -196 0
-173 -192 0
-178 -192 0
-178 -193 0
-174 -190 0
-175 -192 0
-173 -191 0
-175 -195 0
-176 -192 0
-180 -191 0
-180 -190 0
-201 -228 0
-201 -233 0
-204 -226 0
-207 -228 0
-204 -232 0
-205 -226 0
-207 -230 0
-200 -234 0
-200 -233 0
-205 -233 0
-207 -231 0
-199 -229 0
-200 -228 0
-200 -229 0
-200 -231 0
-205 -230 0
-200 -226 0
-207 -232 0
-202 -234 0
-207 -233 0
-201 -231 0
-202 -228 0
-199 -228 0
-203 -229 0
